UBC_100_4.txt

VEHICLE     CAPACITY  LOCATIONS  CUSTOMER  OPTIONS  PRIORITIES  NUMTYPS
10		400		105		100		200		3		4

CUSTOMER  DEMAND
0	 18
1	 12
2	 19
3	 15
4	 19
5	 13
6	 16
7	 12
8	 11
9	 17
10	 18
11	 19
12	 16
13	 13
14	 11
15	 15
16	 10
17	 13
18	 19
19	 18
20	 12
21	 10
22	 20
23	 10
24	 12
25	 20
26	 20
27	 13
28	 14
29	 17
30	 19
31	 17
32	 10
33	 11
34	 10
35	 15
36	 17
37	 19
38	 18
39	 15
40	 20
41	 11
42	 15
43	 14
44	 14
45	 18
46	 13
47	 19
48	 11
49	 13
50	 11
51	 12
52	 18
53	 10
54	 20
55	 11
56	 12
57	 18
58	 14
59	 14
60	 16
61	 17
62	 15
63	 17
64	 18
65	 17
66	 14
67	 12
68	 19
69	 13
70	 11
71	 12
72	 12
73	 15
74	 17
75	 10
76	 13
77	 20
78	 10
79	 11
80	 18
81	 12
82	 19
83	 10
84	 11
85	 12
86	 12
87	 14
88	 13
89	 14
90	 10
91	 15
92	 10
93	 14
94	 14
95	 17
96	 20
97	 20
98	 17
99	 13

LOCATION  XCOORD  YCOORD  CAP  READY  DUE  TYP  SERVICETIME
0		22		24		-1		0		720	 0		0
1		39		1		-1		578		698		 2		6
2		16		37		-1		370		610		 2		6
3		46		43		-1		0		360		 2		6
4		3		16		-1		147		267		 2		6
5		1		14		-1		176		296		 2		6
6		22		29		-1		360		720		 2		6
7		44		35		-1		360		720		 2		6
8		10		46		-1		543		663		 2		6
9		31		49		-1		0		360		 2		6
10		10		45		-1		407		647		 2		6
11		36		50		-1		360		720		 2		6
12		10		6		-1		0		360		 2		6
13		34		31		-1		268		508		 2		6
14		29		34		-1		0		360		 2		6
15		37		4		-1		288		528		 2		6
16		44		23		-1		360		720		 2		6
17		41		37		-1		109		229		 2		6
18		1		49		-1		170		290		 2		6
19		37		7		-1		0		360		 2		6
20		35		11		-1		106		226		 2		6
21		30		43		-1		89		209		 2		6
22		34		45		-1		58		178		 2		6
23		50		19		-1		173		293		 2		6
24		16		31		-1		55		295		 2		6
25		25		8		-1		471		591		 2		6
26		2		39		-1		360		720		 2		6
27		38		27		-1		0		360		 2		6
28		34		13		-1		0		360		 2		6
29		34		29		-1		360		720		 2		6
30		14		18		-1		78		318		 2		6
31		15		14		-1		360		720		 2		6
32		18		17		-1		360		720		 2		6
33		18		50		-1		99		339		 2		6
34		34		48		-1		174		294		 2		6
35		37		23		-1		185		425		 2		6
36		44		8		-1		360		720		 2		6
37		33		25		-1		360		720		 2		6
38		30		38		-1		515		635		 2		6
39		3		31		-1		0		360		 2		6
40		16		32		-1		465		585		 2		6
41		27		48		-1		357		597		 2		6
42		29		39		-1		210		330		 2		6
43		19		41		-1		183		303		 2		6
44		36		4		-1		309		549		 2		6
45		32		16		-1		0		360		 2		6
46		40		49		-1		519		639		 2		6
47		46		40		-1		445		565		 2		6
48		13		21		-1		360		720		 2		6
49		28		5		-1		440		680		 2		6
50		36		35		-1		0		360		 2		6
51		16		4		-1		360		720		 2		6
52		49		17		-1		0		360		 2		6
53		36		32		-1		30		150		 2		6
54		37		14		-1		7		247		 2		6
55		4		11		-1		0		360		 2		6
56		45		23		-1		18		138		 2		6
57		2		45		-1		360		720		 2		6
58		41		41		-1		401		641		 2		6
59		34		29		-1		214		454		 2		6
60		36		26		-1		22		262		 2		6
61		15		39		-1		201		441		 2		6
62		15		1		-1		0		360		 2		6
63		24		14		-1		0		360		 2		6
64		27		47		-1		425		545		 2		6
65		48		5		-1		30		150		 2		6
66		15		44		-1		0		360		 2		6
67		50		5		-1		0		360		 2		6
68		46		48		-1		525		645		 2		6
69		42		36		-1		250		490		 2		6
70		37		44		-1		465		585		 2		6
71		8		10		-1		240		360		 2		6
72		1		38		-1		0		360		 2		6
73		48		24		-1		359		599		 2		6
74		20		33		-1		176		296		 2		6
75		2		35		-1		28		148		 2		6
76		39		2		-1		174		294		 2		6
77		44		44		-1		69		189		 2		6
78		14		11		-1		531		651		 2		6
79		40		41		-1		80		200		 2		6
80		33		25		-1		0		360		 2		6
81		7		17		-1		0		360		 2		6
82		47		9		-1		217		337		 2		6
83		34		49		-1		411		651		 2		6
84		39		12		-1		360		720		 2		6
85		33		47		-1		449		569		 2		6
86		19		6		-1		447		567		 2		6
87		14		50		-1		67		307		 2		6
88		28		42		-1		0		360		 2		6
89		25		8		-1		16		136		 2		6
90		36		16		-1		0		360		 2		6
91		27		29		-1		0		360		 2		6
92		40		7		-1		360		720		 2		6
93		40		10		-1		562		682		 2		6
94		25		37		-1		321		561		 2		6
95		27		26		-1		360		720		 2		6
96		50		5		-1		61		181		 2		6
97		30		31		-1		299		539		 2		6
98		17		15		-1		200		320		 2		6
99		19		50		-1		204		324		 2		6
100		42		23		-1		93		213		 2		6
101		33		29		16		0		720		 1		4
102		41		35		14		0		720		 1		4
103		20		40		28		0		720		 1		4
104		41		43		30		176		656		 1		4
OPTION  LOCATION  CUSTOMER  PRIO  SERVICETIME   COST
0		103		0		0		2		0
1		102		1		0		2		0
2		101		2		0		2		0
3		101		3		0		2		0
4		101		4		0		2		0
5		103		5		0		2		0
6		102		6		0		2		0
7		104		7		0		2		0
8		101		8		0		2		0
9		104		9		0		2		0
10		101		10		0		2		0
11		104		11		0		2		0
12		103		12		0		2		0
13		102		13		0		2		0
14		101		14		0		2		0
15		101		15		0		2		0
16		102		16		0		2		0
17		102		17		0		2		0
18		102		18		0		2		0
19		103		19		0		2		0
20		1		20		0		5		0
21		2		21		0		5		0
22		3		22		0		5		0
23		4		23		0		5		0
24		5		24		0		5		0
25		6		25		0		5		0
26		7		26		0		5		0
27		8		27		0		5		0
28		9		28		0		5		0
29		10		29		0		5		0
30		11		30		0		5		0
31		12		31		0		5		0
32		13		32		0		5		0
33		14		33		0		5		0
34		15		34		0		5		0
35		16		35		0		5		0
36		17		36		0		5		0
37		18		37		0		5		0
38		19		38		0		5		0
39		20		39		0		5		0
40		21		40		0		5		0
41		104		40		1		2		0
42		22		41		1		5		0
43		101		41		0		2		0
44		23		42		0		5		0
45		101		42		1		2		0
46		24		43		0		5		0
47		101		43		1		2		0
48		25		44		1		5		0
49		104		44		0		2		0
50		26		45		1		5		0
51		101		45		0		2		0
52		27		46		1		5		0
53		103		46		0		2		0
54		28		47		0		5		0
55		101		47		1		2		0
56		29		48		0		5		0
57		101		48		1		2		0
58		30		49		1		5		0
59		104		49		0		2		0
60		31		50		0		5		0
61		102		50		1		2		0
62		32		51		0		5		0
63		104		51		1		2		0
64		33		52		0		5		0
65		103		52		1		2		0
66		34		53		1		5		0
67		102		53		0		2		0
68		35		54		0		5		0
69		101		54		1		2		0
70		36		55		0		5		0
71		104		55		1		2		0
72		37		56		1		5		0
73		103		56		0		2		0
74		38		57		1		5		0
75		103		57		0		2		0
76		39		58		1		5		0
77		104		58		0		2		0
78		40		59		1		5		0
79		102		59		0		2		0
80		41		60		0		5		0
81		102		60		1		2		0
82		101		60		2		2		0
83		42		61		1		5		0
84		102		61		0		2		0
85		101		61		2		2		0
86		43		62		1		5		0
87		104		62		2		2		0
88		101		62		0		2		0
89		44		63		2		5		0
90		103		63		0		2		0
91		101		63		1		2		0
92		45		64		0		5		0
93		101		64		1		2		0
94		104		64		2		2		0
95		46		65		2		5		0
96		103		65		1		2		0
97		102		65		0		2		0
98		47		66		1		5		0
99		101		66		0		2		0
100		102		66		2		2		0
101		48		67		1		5		0
102		102		67		2		2		0
103		103		67		0		2		0
104		49		68		2		5		0
105		101		68		1		2		0
106		102		68		0		2		0
107		50		69		1		5		0
108		101		69		0		2		0
109		103		69		2		2		0
110		51		70		1		5		0
111		101		70		0		2		0
112		104		70		2		2		0
113		52		71		0		5		0
114		101		71		1		2		0
115		104		71		2		2		0
116		53		72		1		5		0
117		103		72		2		2		0
118		101		72		0		2		0
119		54		73		2		5		0
120		102		73		1		2		0
121		104		73		0		2		0
122		55		74		1		5		0
123		104		74		2		2		0
124		101		74		0		2		0
125		56		75		2		5		0
126		103		75		0		2		0
127		104		75		1		2		0
128		57		76		0		5		0
129		104		76		1		2		0
130		103		76		2		2		0
131		58		77		1		5		0
132		101		77		0		2		0
133		103		77		2		2		0
134		59		78		0		5		0
135		103		78		1		2		0
136		104		78		2		2		0
137		60		79		1		5		0
138		103		79		0		2		0
139		104		79		2		2		0
140		61		80		0		5		0
141		62		80		1		5		0
142		101		80		2		2		0
143		63		81		2		5		0
144		64		81		0		5		0
145		101		81		1		2		0
146		65		82		2		5		0
147		66		82		1		5		0
148		102		82		0		2		0
149		67		83		1		5		0
150		68		83		0		5		0
151		104		83		2		2		0
152		69		84		0		5		0
153		70		84		2		5		0
154		102		84		1		2		0
155		71		85		1		5		0
156		72		85		0		5		0
157		101		85		2		2		0
158		73		86		1		5		0
159		74		86		2		5		0
160		102		86		0		2		0
161		75		87		2		5		0
162		76		87		0		5		0
163		103		87		1		2		0
164		77		88		1		5		0
165		78		88		0		5		0
166		104		88		2		2		0
167		79		89		1		5		0
168		80		89		0		5		0
169		104		89		2		2		0
170		81		90		1		5		0
171		82		90		0		5		0
172		103		90		2		2		0
173		83		91		2		5		0
174		84		91		0		5		0
175		103		91		1		2		0
176		85		92		0		5		0
177		86		92		1		5		0
178		102		92		2		2		0
179		87		93		0		5		0
180		88		93		1		5		0
181		103		93		2		2		0
182		89		94		2		5		0
183		90		94		1		5		0
184		102		94		0		2		0
185		91		95		0		5		0
186		92		95		1		5		0
187		102		95		2		2		0
188		93		96		1		5		0
189		94		96		0		5		0
190		102		96		2		2		0
191		95		97		0		5		0
192		96		97		1		5		0
193		101		97		2		2		0
194		97		98		0		5		0
195		98		98		2		5		0
196		101		98		1		2		0
197		99		99		1		5		0
198		100		99		2		5		0
199		102		99		0		2		0
